etc/upTests/___types/emptyRelation/0002.eprime
language ESSENCE' 1.0

find x_RelationAsSet_SetExplicitVarSize_tuple1:
        matrix indexed by [int(1..45)] of bool
find x_RelationAsSet_SetExplicitVarSize_tuple2_tuple1:
        matrix indexed by [int(1..45)] of int(1..9)
find x_RelationAsSet_SetExplicitVarSize_tuple2_tuple2:
        matrix indexed by [int(1..45)] of int(3..7)
such that
    forAll v__0 : int(1..44)
        . x_RelationAsSet_SetExplicitVarSize_tuple1[v__0]
          /\
          x_RelationAsSet_SetExplicitVarSize_tuple1[v__0 + 1]
          ->
          x_RelationAsSet_SetExplicitVarSize_tuple2_tuple1[v__0]
          <
          x_RelationAsSet_SetExplicitVarSize_tuple2_tuple1[v__0 + 1]
          \/
          x_RelationAsSet_SetExplicitVarSize_tuple2_tuple1[v__0]
          =
          x_RelationAsSet_SetExplicitVarSize_tuple2_tuple1[v__0 + 1]
          /\
          x_RelationAsSet_SetExplicitVarSize_tuple2_tuple2[v__0]
          <
          x_RelationAsSet_SetExplicitVarSize_tuple2_tuple2[v__0 + 1],
    forAll v__0 : int(1..44)
        . x_RelationAsSet_SetExplicitVarSize_tuple1[v__0]
          <=
          x_RelationAsSet_SetExplicitVarSize_tuple1[v__0 + 1],
    forAll v__0 : int(1..45)
        . x_RelationAsSet_SetExplicitVarSize_tuple1[v__0]
          ->
          x_RelationAsSet_SetExplicitVarSize_tuple2_tuple1[v__0]
          =
          x_RelationAsSet_SetExplicitVarSize_tuple2_tuple2[v__0]
