etc/upTests/___types/emptyRelation/0002.eprime.solution
language ESSENCE' 1.0
$ minion Nodes: 136
$ minion TotalTime: 0.008732
$ Savile Row TotalTime: 0.396
letting x_RelationAsSet_SetExplicitVarSize_tuple1 be [false, false, false, false, false, false, false, false, false, false, false, false, false, false, false, false, false, false, false, false, false, false, false, false, false, false, false, false, false, false, false, false, false, false, false, false, false, false, false, false, false, false, false, false, false;int(1..45)]
letting x_RelationAsSet_SetExplicitVarSize_tuple2_tuple2 be [3, 3, 3, 3, 3, 3, 3, 3, 3, 3, 3, 3, 3, 3, 3, 3, 3, 3, 3, 3, 3, 3, 3, 3, 3, 3, 3, 3, 3, 3, 3, 3, 3, 3, 3, 3, 3, 3, 3, 3, 3, 3, 3, 3, 3;int(1..45)]
letting x_RelationAsSet_SetExplicitVarSize_tuple2_tuple1 be [1, 1, 1, 1, 1, 1, 1, 1, 1, 1, 1, 1, 1, 1, 1, 1, 1, 1, 1, 1, 1, 1, 1, 1, 1, 1, 1, 1, 1, 1, 1, 1, 1, 1, 1, 1, 1, 1, 1, 1, 1, 1, 1, 1, 1;int(1..45)]
